[on. 05. april 13:06:13 +0200 2023]  ./input/alternate_g_np_100/100-2-4.gcc
Set parameter Username
Academic license - for non-commercial use only - expires 2024-03-28
Set parameter TimeLimit to value 1800
Set parameter PreCrush to value 1
Set parameter LazyConstraints to value 1
Gurobi Optimizer version 10.0.1 build v10.0.1rc0 (linux64)

CPU model: AMD Ryzen 9 5950X 16-Core Processor, instruction set [SSE2|AVX|AVX2]
Thread count: 16 physical cores, 32 logical processors, using up to 32 threads

Optimize a model with 101 rows, 200 columns and 400 nonzeros
Model fingerprint: 0x8cf4ee0f
Variable types: 0 continuous, 200 integer (200 binary)
Coefficient statistics:
  Matrix range     [1e+00, 1e+00]
  Objective range  [1e+00, 1e+02]
  Bounds range     [1e+00, 1e+00]
  RHS range        [1e+00, 1e+00]
Presolve time: 0.00s
Presolved: 101 rows, 200 columns, 400 nonzeros
Variable types: 0 continuous, 200 integer (200 binary)

Root relaxation: objective 4.435000e+03, 1 iterations, 0.00 seconds (0.00 work units)

    Nodes    |    Current Node    |     Objective Bounds      |     Work
 Expl Unexpl |  Obj  Depth IntInf | Incumbent    BestBd   Gap | It/Node Time

     0     0 4435.00000    0    -          - 4435.00000      -     -    0s
     0     0 4435.00000    0    -          - 4435.00000      -     -    0s
     0     0 4435.00000    0    -          - 4435.00000      -     -    0s
     0     0 4435.00000    0    -          - 4435.00000      -     -    0s
     0     0 4435.00000    0    -          - 4435.00000      -     -    0s
     0     0 4435.00000    0   12          - 4435.00000      -     -    0s
     0     0 4435.00000    0   18          - 4435.00000      -     -    0s
     0     0 4435.00000    0    -          - 4435.00000      -     -    0s
     0     0 4435.00000    0    -          - 4435.00000      -     -    0s
     0     0 4428.75000    0   26          - 4428.75000      -     -    0s
     0     0 4422.50000    0   19          - 4422.50000      -     -    0s
     0     0 4422.50000    0   11          - 4422.50000      -     -    0s
     0     2 4422.50000    0    9          - 4422.50000      -     -    0s
 20821  9309 4101.20000   27   38          - 4251.00000      -  11.8    5s
 39070 15930 4126.00000   29    -          - 4207.00000      -  12.7   10s
 49724 23308 3763.60000   34   95          - 4202.00000      -  13.7   15s
 59000 28533 3886.56863   24   25          - 4193.00000      -  14.6   20s
 67075 33219 3490.00000   46    -          - 4185.00000      -  15.4   25s
 73392 36434 3482.00000   41   38          - 4172.00000      -  15.9   30s
 78198 38140 3881.66667   26  110          - 4057.00000      -  16.2   35s
*78748 36441              31    3762.0000000 4036.00000  7.28%  16.4   37s
 79489 36377     cutoff   37      3762.00000 4020.00000  6.86%  16.5   40s
 82682 36115 3778.75000   39   81 3762.00000 3917.00000  4.12%  17.2   45s
*84735 33667              19    3856.0000000 3881.00000  0.65%  17.5   48s

Cutting planes:
  User: 1125
  Lazy constraints: 920

Explored 86338 nodes (1490333 simplex iterations) in 48.89 seconds (37.10 work units)
Thread count was 32 (of 32 available processors)

Solution count 2: 3856 3762 

Optimal solution found (tolerance 1.00e-04)
Best objective 3.856000000000e+03, best bound 3.856000000000e+03, gap 0.0000%

User-callback calls 180646, time in user-callback 15.26 sec
Minimal separator inequalities added: 149194
Indegree inequalities added: 0
Passed solution check
[on. 05. april 13:07:02 +0200 2023]  done

